c Result of efficient AIG-to-CNF conversion using package CNF
p cnf 365 1479
-2 3 237 0
-2 -3 -237 0
2 -3 237 0
2 3 -237 0
-3 4 123 0
-3 -4 -123 0
3 -4 123 0
3 4 -123 0
-4 -5 -90 0
-4 5 90 0
4 5 -90 0
4 -5 90 0
-5 -6 -58 0
-5 6 58 0
5 6 -58 0
5 -6 58 0
-6 7 35 0
-6 -7 -35 0
6 -7 35 0
6 7 -35 0
-7 8 34 0
-7 -8 -34 0
7 -8 34 0
7 8 -34 0
-8 -9 -22 0
-8 9 22 0
8 9 -22 0
8 -9 22 0
-9 10 11 0
-9 -10 -11 0
9 -10 11 0
9 10 -11 0
10 -350 -359 0
-10 350 0
-10 359 0
-11 -12 -19 0
-11 12 19 0
11 12 -19 0
11 -12 19 0
-12 13 16 0
-12 -13 -16 0
12 -13 16 0
12 13 -16 0
13 -14 -15 0
-13 14 0
-13 15 0
14 -359 -361 0
-14 359 0
-14 361 0
15 -350 -364 0
-15 350 0
-15 364 0
-16 -17 -18 0
-16 17 18 0
16 17 -18 0
16 -17 18 0
17 -356 -364 0
-17 356 0
-17 364 0
18 -354 -355 0
-18 354 0
-18 355 0
19 -20 -21 0
-19 20 0
-19 21 0
20 -355 -356 0
-20 355 0
-20 356 0
21 -353 -354 0
-21 353 0
-21 354 0
22 -23 -24 0
-22 23 0
-22 24 0
-23 -14 -15 0
-23 14 15 0
23 14 -15 0
23 -14 15 0
-24 -25 -31 0
-24 25 31 0
24 25 -31 0
24 -25 31 0
-25 26 27 0
-25 -26 -27 0
25 -26 27 0
25 26 -27 0
-26 -20 -21 0
-26 20 21 0
26 20 -21 0
26 -20 21 0
-27 28 30 0
-27 29 30 0
-27 28 29 0
27 -28 -29 0
27 -29 -30 0
27 -28 -30 0
28 -359 -360 0
-28 359 0
-28 360 0
29 -361 -364 0
-29 361 0
-29 364 0
30 -350 -355 0
-30 350 0
-30 355 0
31 -32 -33 0
-31 32 0
-31 33 0
32 -353 -356 0
-32 353 0
-32 356 0
33 -349 -354 0
-33 349 0
-33 354 0
-34 26 27 0
-34 27 31 0
-34 26 31 0
34 -27 -31 0
34 -26 -27 0
34 -26 -31 0
-35 36 37 0
-35 37 57 0
-35 36 57 0
35 -36 -57 0
35 -37 -57 0
35 -36 -37 0
-36 23 24 0
-36 -23 -24 0
36 -23 24 0
36 23 -24 0
-37 38 40 0
-37 40 50 0
-37 38 50 0
37 -38 -50 0
37 -40 -50 0
37 -38 -40 0
-38 -39 -30 0
-38 39 30 0
38 39 -30 0
38 -39 30 0
-39 -28 -29 0
-39 28 29 0
39 28 -29 0
39 -28 29 0
-40 41 48 0
-40 42 43 0
-40 42 48 0
-40 41 43 0
40 -41 -42 0
40 -43 -48 0
41 -352 -359 0
-41 352 0
-41 359 0
42 -352 -358 -359 -364 0
-42 364 0
-42 352 0
-42 359 0
-42 358 0
-43 -44 -47 0
-43 44 47 0
43 44 -47 0
43 -44 47 0
-44 -45 -46 0
-44 45 46 0
44 45 -46 0
44 -45 46 0
45 -360 -364 0
-45 360 0
-45 364 0
46 -355 -361 0
-46 355 0
-46 361 0
47 -350 -353 0
-47 350 0
-47 353 0
-48 49 0
48 -49 0
49 -41 42 0
-49 41 0
-49 -42 0
-50 -51 -54 0
-50 51 54 0
50 51 -54 0
50 -51 54 0
-51 52 53 0
-51 -52 -53 0
51 -52 53 0
51 52 -53 0
-52 -32 -33 0
-52 32 33 0
52 32 -33 0
52 -32 33 0
-53 45 47 0
-53 46 47 0
-53 45 46 0
53 -45 -46 0
53 -46 -47 0
53 -45 -47 0
54 -55 -56 0
-54 55 0
-54 56 0
55 -349 -356 0
-55 349 0
-55 356 0
56 -354 -362 0
-56 354 0
-56 362 0
-57 52 53 0
-57 53 54 0
-57 52 54 0
57 -53 -54 0
57 -52 -53 0
57 -52 -54 0
58 -59 -61 0
-58 59 0
-58 61 0
-59 57 60 0
-59 -57 -60 0
59 -57 60 0
59 57 -60 0
-60 36 37 0
-60 -36 -37 0
60 -36 37 0
60 36 -37 0
-61 62 64 0
-61 64 89 0
-61 62 89 0
61 -62 -89 0
61 -64 -89 0
61 -62 -64 0
-62 50 63 0
-62 -50 -63 0
62 -50 63 0
62 50 -63 0
-63 38 40 0
-63 -38 -40 0
63 -38 40 0
63 38 -40 0
-64 65 66 0
-64 66 81 0
-64 65 81 0
64 -65 -81 0
64 -66 -81 0
64 -65 -66 0
-65 43 48 0
-65 -43 -48 0
65 -43 48 0
65 43 -48 0
-66 67 70 0
-66 70 76 0
-66 67 76 0
66 -67 -76 0
66 -70 -76 0
66 -67 -70 0
-67 -68 -69 0
-67 68 69 0
67 68 -69 0
67 -68 69 0
68 -358 -359 0
-68 358 0
-68 359 0
69 -352 -364 0
-69 352 0
-69 364 0
-70 71 72 0
-70 71 73 0
70 -71 0
70 -72 -73 0
71 -351 -358 -359 -364 0
-71 364 0
-71 351 0
-71 359 0
-71 358 0
72 -352 -355 0
-72 352 0
-72 355 0
-73 -74 -75 0
-73 74 75 0
73 74 -75 0
73 -74 75 0
74 -351 -359 0
-74 351 0
-74 359 0
75 -358 -364 0
-75 358 0
-75 364 0
-76 -77 -80 0
-76 77 80 0
76 77 -80 0
76 -77 80 0
-77 -78 -79 0
-77 78 79 0
77 78 -79 0
77 -78 79 0
78 -355 -360 0
-78 355 0
-78 360 0
79 -353 -361 0
-79 353 0
-79 361 0
80 -349 -350 0
-80 349 0
-80 350 0
-81 -82 -86 0
-81 82 86 0
81 82 -86 0
81 -82 86 0
-82 83 84 0
-82 -83 -84 0
82 -83 84 0
82 83 -84 0
-83 -55 -56 0
-83 55 56 0
83 55 -56 0
83 -55 56 0
-84 77 85 0
-84 80 85 0
84 -85 0
84 -77 -80 0
85 -78 -79 0
-85 78 0
-85 79 0
86 -87 -88 0
-86 87 0
-86 88 0
87 -356 -362 0
-87 356 0
-87 362 0
88 -354 -357 0
-88 354 0
-88 357 0
-89 83 84 0
-89 84 86 0
-89 83 86 0
89 -84 -86 0
89 -83 -84 0
89 -83 -86 0
90 -91 -92 0
-90 91 0
-90 92 0
-91 59 61 0
-91 -59 -61 0
91 -59 61 0
91 59 -61 0
92 -93 -95 0
-92 93 0
-92 95 0
-93 89 94 0
-93 -89 -94 0
93 -89 94 0
93 89 -94 0
-94 62 64 0
-94 -62 -64 0
94 -62 64 0
94 62 -64 0
-95 96 98 0
-95 98 122 0
-95 96 122 0
95 -96 -122 0
95 -98 -122 0
95 -96 -98 0
-96 81 97 0
-96 -81 -97 0
96 -81 97 0
96 81 -97 0
-97 65 66 0
-97 -65 -66 0
97 -65 66 0
97 65 -66 0
-98 99 101 0
-98 101 115 0
-98 99 115 0
98 -99 -115 0
98 -101 -115 0
98 -99 -101 0
-99 76 100 0
-99 -76 -100 0
99 -76 100 0
99 76 -100 0
-100 67 70 0
-100 -67 -70 0
100 -67 70 0
100 67 -70 0
-101 103 109 0
-101 102 114 0
-101 102 109 0
-101 103 114 0
101 -109 -114 0
101 -102 -103 0
-102 72 73 0
-102 -72 -73 0
102 -72 73 0
102 72 -73 0
-103 104 105 0
-103 104 106 0
103 -104 0
103 -105 -106 0
104 -351 -355 -358 -364 0
-104 364 0
-104 351 0
-104 358 0
-104 355 0
105 -352 -353 0
-105 352 0
-105 353 0
-106 -107 -108 0
-106 107 108 0
106 107 -108 0
106 -107 108 0
107 -351 -364 0
-107 351 0
-107 364 0
108 -355 -358 0
-108 355 0
-108 358 0
-109 -110 -113 0
-109 110 113 0
109 110 -113 0
109 -110 113 0
-110 -111 -112 0
-110 111 112 0
110 111 -112 0
110 -111 112 0
111 -353 -360 0
-111 353 0
-111 360 0
112 -349 -361 0
-112 349 0
-112 361 0
113 -350 -362 0
-113 350 0
-113 362 0
-114 102 103 0
-114 -102 -103 0
114 -102 103 0
114 102 -103 0
-115 -116 -119 0
-115 116 119 0
115 116 -119 0
115 -116 119 0
-116 117 118 0
-116 -117 -118 0
116 -117 118 0
116 117 -118 0
-117 -87 -88 0
-117 87 88 0
117 87 -88 0
117 -87 88 0
-118 111 113 0
-118 112 113 0
-118 111 112 0
118 -111 -112 0
118 -112 -113 0
118 -111 -113 0
119 -120 -121 0
-119 120 0
-119 121 0
120 -356 -357 0
-120 356 0
-120 357 0
121 -354 -363 0
-121 354 0
-121 363 0
-122 117 118 0
-122 118 119 0
-122 117 119 0
122 -118 -119 0
122 -117 -118 0
122 -117 -119 0
-123 124 182 227 0
-123 124 184 227 0
123 -124 0
123 -227 0
123 -182 -184 0
-124 126 155 0
-124 125 154 0
-124 125 155 0
-124 125 126 0
-124 126 154 0
124 -125 -126 0
124 -125 -154 -155 0
124 -126 -154 -155 0
-125 -91 -92 0
-125 91 92 0
125 91 -92 0
125 -91 92 0
126 -127 -128 0
-126 127 0
-126 128 0
-127 93 95 0
-127 -93 -95 0
127 -93 95 0
127 93 -95 0
128 -129 -131 0
-128 129 0
-128 131 0
-129 122 130 0
-129 -122 -130 0
129 -122 130 0
129 122 -130 0
-130 96 98 0
-130 -96 -98 0
130 -96 98 0
130 96 -98 0
-131 132 134 0
-131 134 153 0
-131 132 153 0
131 -134 -153 0
131 -132 -134 0
131 -132 -153 0
-132 115 133 0
-132 -115 -133 0
132 -115 133 0
132 115 -133 0
-133 99 101 0
-133 -99 -101 0
133 -99 101 0
133 99 -101 0
-134 135 136 0
-134 136 150 0
-134 135 150 0
134 -135 -150 0
134 -136 -150 0
134 -135 -136 0
-135 109 114 0
-135 -109 -114 0
135 -109 114 0
135 109 -114 0
-136 138 144 0
-136 137 149 0
-136 137 144 0
-136 138 149 0
136 -144 -149 0
136 -137 -138 0
-137 105 106 0
-137 -105 -106 0
137 -105 106 0
137 105 -106 0
-138 139 140 0
-138 139 141 0
138 -139 0
138 -140 -141 0
139 -351 -353 -355 -358 0
-139 358 0
-139 351 0
-139 355 0
-139 353 0
140 -349 -352 0
-140 349 0
-140 352 0
-141 -142 -143 0
-141 142 143 0
141 142 -143 0
141 -142 143 0
142 -351 -355 0
-142 351 0
-142 355 0
143 -353 -358 0
-143 353 0
-143 358 0
-144 -145 -148 0
-144 145 148 0
144 145 -148 0
144 -145 148 0
-145 -146 -147 0
-145 146 147 0
145 146 -147 0
145 -146 147 0
146 -349 -360 0
-146 349 0
-146 360 0
147 -361 -362 0
-147 361 0
-147 362 0
148 -350 -357 0
-148 350 0
-148 357 0
-149 137 138 0
-149 -137 -138 0
149 -137 138 0
149 137 -138 0
-150 151 152 0
-150 -151 -152 0
150 -151 152 0
150 151 -152 0
-151 -120 -121 0
-151 120 121 0
151 120 -121 0
151 -120 121 0
-152 146 148 0
-152 147 148 0
-152 146 147 0
152 -146 -147 0
152 -147 -148 0
152 -146 -148 0
153 -151 -152 0
-153 151 0
-153 152 0
-154 -127 -128 0
-154 127 128 0
154 127 -128 0
154 -127 128 0
155 -156 -157 0
-155 156 0
-155 157 0
-156 129 131 0
-156 -129 -131 0
156 -129 131 0
156 129 -131 0
157 -158 -160 0
-157 158 0
-157 160 0
-158 153 159 0
-158 -153 -159 0
158 -153 159 0
158 153 -159 0
-159 132 134 0
-159 -132 -134 0
159 -132 134 0
159 132 -134 0
-160 161 163 0
-160 163 181 0
-160 161 181 0
160 -163 -181 0
160 -161 -163 0
160 -161 -181 0
-161 150 162 0
-161 -150 -162 0
161 -150 162 0
161 150 -162 0
-162 135 136 0
-162 -135 -136 0
162 -135 136 0
162 135 -136 0
-163 164 165 0
-163 165 178 0
-163 164 178 0
163 -164 -178 0
163 -165 -178 0
163 -164 -165 0
-164 144 149 0
-164 -144 -149 0
164 -144 149 0
164 144 -149 0
-165 166 167 0
-165 167 173 0
-165 166 173 0
165 -166 -173 0
165 -167 -173 0
165 -166 -167 0
-166 140 141 0
-166 -140 -141 0
166 -140 141 0
166 140 -141 0
-167 168 169 0
-167 168 170 0
167 -168 0
167 -169 -170 0
168 -349 -351 -353 -358 0
-168 358 0
-168 349 0
-168 353 0
-168 351 0
169 -352 -362 0
-169 352 0
-169 362 0
-170 -171 -172 0
-170 171 172 0
170 171 -172 0
170 -171 172 0
171 -351 -353 0
-171 351 0
-171 353 0
172 -349 -358 0
-172 349 0
-172 358 0
-173 -174 -177 0
-173 174 177 0
173 174 -177 0
173 -174 177 0
-174 -175 -176 0
-174 175 176 0
174 175 -176 0
174 -175 176 0
175 -360 -362 0
-175 360 0
-175 362 0
176 -357 -361 0
-176 357 0
-176 361 0
177 -350 -363 0
-177 350 0
-177 363 0
-178 179 180 0
-178 -179 -180 0
178 -179 180 0
178 179 -180 0
179 -356 -363 0
-179 356 0
-179 363 0
-180 175 177 0
-180 176 177 0
-180 175 176 0
180 -175 -176 0
180 -176 -177 0
180 -175 -177 0
181 -179 -180 0
-181 179 0
-181 180 0
182 -183 154 -155 0
182 -183 -154 155 0
-182 183 0
-182 154 155 0
-182 -154 -155 0
-183 -125 -126 0
-183 125 126 0
183 125 -126 0
183 -125 126 0
-184 186 210 0
-184 185 209 0
-184 185 210 0
-184 185 186 0
-184 186 209 0
184 -185 -186 0
184 -185 -209 -210 0
184 -186 -209 -210 0
-185 -156 -157 0
-185 156 157 0
185 156 -157 0
185 -156 157 0
186 -187 -188 0
-186 187 0
-186 188 0
-187 158 160 0
-187 -158 -160 0
187 -158 160 0
187 158 -160 0
188 -189 -191 0
-188 189 0
-188 191 0
-189 181 190 0
-189 -181 -190 0
189 -181 190 0
189 181 -190 0
-190 161 163 0
-190 -161 -163 0
190 -161 163 0
190 161 -163 0
191 -192 -194 0
-191 192 0
-191 194 0
-192 178 193 0
-192 -178 -193 0
192 -178 193 0
192 178 -193 0
-193 164 165 0
-193 -164 -165 0
193 -164 165 0
193 164 -165 0
-194 195 197 0
-194 197 208 0
-194 195 208 0
194 -197 -208 0
194 -195 -197 0
194 -195 -208 0
-195 173 196 0
-195 -173 -196 0
195 -173 196 0
195 173 -196 0
-196 166 167 0
-196 -166 -167 0
196 -166 167 0
196 166 -167 0
-197 198 199 0
-197 199 205 0
-197 198 205 0
197 -198 -205 0
197 -199 -205 0
197 -198 -199 0
-198 169 170 0
-198 -169 -170 0
198 -169 170 0
198 169 -170 0
-199 200 201 0
-199 200 202 0
199 -200 0
199 -201 -202 0
200 -349 -351 -358 -362 0
-200 362 0
-200 349 0
-200 358 0
-200 351 0
201 -352 -357 0
-201 352 0
-201 357 0
-202 -203 -204 0
-202 203 204 0
202 203 -204 0
202 -203 204 0
203 -349 -351 0
-203 349 0
-203 351 0
204 -358 -362 0
-204 358 0
-204 362 0
-205 -206 -207 0
-205 206 207 0
205 206 -207 0
205 -206 207 0
206 -357 -360 0
-206 357 0
-206 360 0
207 -361 -363 0
-207 361 0
-207 363 0
208 -206 -207 0
-208 206 0
-208 207 0
-209 -187 -188 0
-209 187 188 0
209 187 -188 0
209 -187 188 0
210 -211 -212 0
-210 211 0
-210 212 0
-211 -189 -191 0
-211 189 191 0
211 189 -191 0
211 -189 191 0
212 -213 -214 0
-212 213 0
-212 214 0
-213 192 194 0
-213 -192 -194 0
213 -192 194 0
213 192 -194 0
214 -215 -217 0
-214 215 0
-214 217 0
-215 208 216 0
-215 -208 -216 0
215 -208 216 0
215 208 -216 0
-216 195 197 0
-216 -195 -197 0
216 -195 197 0
216 195 -197 0
217 -218 -220 0
-217 218 0
-217 220 0
-218 205 219 0
-218 -205 -219 0
218 -205 219 0
218 205 -219 0
-219 198 199 0
-219 -198 -199 0
219 -198 199 0
219 198 -199 0
-220 221 222 0
-220 222 226 0
-220 221 226 0
220 -222 -226 0
220 -221 -222 0
220 -221 -226 0
-221 201 202 0
-221 -201 -202 0
221 -201 202 0
221 201 -202 0
-222 223 225 0
-222 224 225 0
-222 223 224 0
222 -223 -224 0
222 -224 -225 0
222 -223 -225 0
223 -351 -362 0
-223 351 0
-223 362 0
224 -357 -358 0
-224 357 0
-224 358 0
225 -352 -363 0
-225 352 0
-225 363 0
226 -360 -363 0
-226 360 0
-226 363 0
227 -211 212 -228 -230 0
227 211 -212 -228 -230 0
-227 230 0
-227 211 212 0
-227 228 0
-227 -211 -212 0
228 -182 -229 209 -210 0
228 -182 -229 -209 210 0
-228 229 0
-228 -209 -210 0
-228 182 0
-228 209 210 0
-229 -185 -186 0
-229 185 186 0
229 185 -186 0
229 -185 186 0
230 213 -214 -231 0
230 -213 214 -231 0
-230 231 0
-230 213 214 0
-230 -213 -214 0
231 -215 218 -220 -232 0
231 -215 -218 220 -232 0
-231 232 0
-231 218 220 0
-231 215 0
-231 -218 -220 0
232 226 -233 -234 -236 0
232 -226 233 -234 -236 0
-232 234 0
-232 226 233 0
-232 236 0
-232 -226 -233 0
-233 221 222 0
-233 -221 -222 0
233 -221 222 0
233 221 -222 0
-234 225 235 0
-234 -225 -235 0
234 -225 235 0
234 225 -235 0
-235 -223 -224 0
-235 223 224 0
235 223 -224 0
235 -223 224 0
236 -351 -357 -358 -363 0
-236 363 0
-236 351 0
-236 358 0
-236 357 0
-237 238 259 0
-237 -238 -259 0
237 -238 259 0
237 238 -259 0
-238 239 248 0
-238 -239 -248 0
238 -239 248 0
238 239 -248 0
-239 240 244 0
-239 -240 -244 0
239 -240 244 0
239 240 -244 0
-240 241 242 0
-240 -241 -242 0
240 -241 242 0
240 241 -242 0
-241 14 21 0
-241 15 21 0
-241 14 15 0
241 -14 -15 0
241 -15 -21 0
241 -14 -21 0
-242 17 243 0
-242 -17 -243 0
242 -17 243 0
242 17 -243 0
-243 -10 -18 0
-243 10 18 0
243 10 -18 0
243 -10 18 0
-244 20 245 0
-244 245 246 0
-244 20 246 0
244 -245 -246 0
244 -20 -245 0
244 -20 -246 0
-245 364 33 0
-245 361 28 0
-245 28 33 0
-245 364 28 0
-245 361 33 0
245 -28 -33 0
245 -361 -364 -33 0
245 -361 -364 -28 0
-246 15 247 0
-246 -15 -247 0
246 -15 247 0
246 15 -247 0
-247 -14 -21 0
-247 14 21 0
247 14 -21 0
247 -14 21 0
-248 249 251 0
-248 251 253 0
-248 249 253 0
248 -249 -253 0
248 -251 -253 0
248 -249 -251 0
-249 32 250 0
-249 30 32 0
-249 30 250 0
249 -30 -32 0
249 -32 -250 0
249 -30 -250 0
-250 364 56 0
-250 360 41 0
-250 41 56 0
-250 364 41 0
-250 360 56 0
250 -41 -56 0
250 -360 -364 -56 0
250 -360 -364 -41 0
-251 246 252 0
-251 -246 -252 0
251 -246 252 0
251 246 -252 0
-252 20 245 0
-252 -20 -245 0
252 -20 245 0
252 20 -245 0
-253 254 255 0
-253 255 257 0
-253 254 257 0
253 -254 -257 0
253 -255 -257 0
253 -254 -255 0
-254 46 55 0
-254 47 55 0
-254 46 47 0
254 -46 -47 0
254 -47 -55 0
254 -46 -55 0
-255 29 256 0
-255 -29 -256 0
255 -29 256 0
255 29 -256 0
-256 -28 -33 0
-256 28 33 0
256 28 -33 0
256 -28 33 0
-257 250 258 0
-257 -250 -258 0
257 -250 258 0
257 250 -258 0
-258 -30 -32 0
-258 30 32 0
258 30 -32 0
258 -30 32 0
-259 260 262 0
-259 262 276 0
-259 260 276 0
259 -260 -276 0
259 -262 -276 0
259 -260 -262 0
-260 253 261 0
-260 -253 -261 0
260 -253 261 0
260 253 -261 0
-261 249 251 0
-261 -249 -251 0
261 -249 251 0
261 249 -251 0
-262 263 267 0
-262 267 274 0
-262 263 274 0
262 -263 -274 0
262 -267 -274 0
262 -263 -267 0
-263 42 264 0
-263 264 265 0
-263 42 265 0
263 -264 -265 0
263 -42 -264 0
263 -42 -265 0
-264 78 88 0
-264 79 88 0
-264 78 79 0
264 -78 -79 0
264 -79 -88 0
264 -78 -88 0
-265 55 266 0
-265 -55 -266 0
265 -55 266 0
265 55 -266 0
-266 -46 -47 0
-266 46 47 0
266 46 -47 0
266 -46 47 0
-267 268 270 0
-267 270 271 0
-267 268 271 0
267 -268 -271 0
267 -270 -271 0
267 -268 -270 0
-268 45 269 0
-268 -45 -269 0
268 -45 269 0
268 45 -269 0
-269 -41 -56 0
-269 41 56 0
269 41 -56 0
269 -41 56 0
-270 71 87 0
-270 80 87 0
-270 71 80 0
270 -71 -80 0
270 -80 -87 0
270 -71 -87 0
-271 67 272 0
-271 272 273 0
-271 67 273 0
271 -67 -273 0
271 -272 -273 0
271 -67 -272 0
-272 72 121 0
-272 120 121 0
-272 72 120 0
272 -72 -120 0
272 -120 -121 0
272 -72 -121 0
-273 360 113 0
-273 353 112 0
-273 112 113 0
-273 360 112 0
-273 353 113 0
273 -112 -113 0
273 -353 -360 -113 0
273 -353 -360 -112 0
-274 257 275 0
-274 -257 -275 0
274 -257 275 0
274 257 -275 0
-275 254 255 0
-275 -254 -255 0
275 -254 255 0
275 254 -255 0
-276 277 288 0
-276 288 290 0
-276 277 290 0
276 -277 -290 0
276 -288 -290 0
276 -277 -288 0
-277 278 280 0
-277 280 286 0
-277 278 286 0
277 -278 -286 0
277 -280 -286 0
277 -278 -280 0
-278 265 279 0
-278 -265 -279 0
278 -265 279 0
278 265 -279 0
-279 42 264 0
-279 -42 -264 0
279 -42 264 0
279 42 -264 0
-280 281 282 0
-280 282 284 0
-280 281 284 0
280 -281 -284 0
280 -282 -284 0
280 -281 -282 0
-281 -77 -88 0
-281 77 88 0
281 77 -88 0
281 -77 88 0
-282 71 283 0
-282 -71 -283 0
282 -71 283 0
282 71 -283 0
-283 -80 -87 0
-283 80 87 0
283 80 -87 0
283 -80 87 0
-284 73 285 0
-284 73 104 0
-284 104 285 0
284 -104 -285 0
284 -73 -285 0
284 -73 -104 0
-285 105 179 0
-285 148 179 0
-285 105 148 0
285 -105 -148 0
285 -148 -179 0
285 -105 -179 0
-286 271 287 0
-286 -271 -287 0
286 -271 287 0
286 271 -287 0
-287 268 270 0
-287 -268 -270 0
287 -268 270 0
287 268 -270 0
-288 274 289 0
-288 -274 -289 0
288 -274 289 0
288 274 -289 0
-289 263 267 0
-289 -263 -267 0
289 -263 267 0
289 263 -267 0
-290 291 302 0
-290 302 304 0
-290 291 304 0
290 -291 -304 0
290 -302 -304 0
290 -291 -302 0
-291 292 294 0
-291 294 300 0
-291 292 300 0
291 -292 -300 0
291 -294 -300 0
291 -292 -294 0
-292 273 293 0
-292 -273 -293 0
292 -273 293 0
292 273 -293 0
-293 67 272 0
-293 -67 -272 0
293 -67 272 0
293 67 -272 0
-294 295 297 0
-294 297 299 0
-294 295 299 0
294 -295 -299 0
294 -297 -299 0
294 -295 -297 0
-295 112 296 0
-295 -112 -296 0
295 -112 296 0
295 112 -296 0
-296 -111 -113 0
-296 111 113 0
296 111 -113 0
296 -111 113 0
-297 120 298 0
-297 -120 -298 0
297 -120 298 0
297 120 -298 0
-298 -72 -121 0
-298 72 121 0
298 72 -121 0
298 -72 121 0
-299 139 147 0
-299 146 147 0
-299 139 146 0
299 -139 -146 0
299 -146 -147 0
299 -139 -147 0
-300 284 301 0
-300 -284 -301 0
300 -284 301 0
300 284 -301 0
-301 281 282 0
-301 -281 -282 0
301 -281 282 0
301 281 -282 0
-302 286 303 0
-302 -286 -303 0
302 -286 303 0
302 286 -303 0
-303 278 280 0
-303 -278 -280 0
303 -278 280 0
303 278 -280 0
-304 305 314 0
-304 314 316 0
-304 305 316 0
304 -305 -316 0
304 -314 -316 0
304 -305 -314 0
-305 306 308 0
-305 308 312 0
-305 306 312 0
305 -306 -312 0
305 -308 -312 0
305 -306 -308 0
-306 285 307 0
-306 -285 -307 0
306 -285 307 0
306 285 -307 0
-307 -73 -104 0
-307 73 104 0
307 73 -104 0
307 -73 104 0
-308 106 309 0
-308 309 310 0
-308 106 310 0
308 -106 -310 0
308 -309 -310 0
308 -106 -309 0
-309 140 177 0
-309 175 177 0
-309 140 175 0
309 -140 -175 0
309 -175 -177 0
309 -140 -177 0
-310 148 311 0
-310 -148 -311 0
310 -148 311 0
310 148 -311 0
-311 -105 -179 0
-311 105 179 0
311 105 -179 0
311 -105 179 0
-312 299 313 0
-312 -299 -313 0
312 -299 313 0
312 299 -313 0
-313 295 297 0
-313 -295 -297 0
313 -295 297 0
313 295 -297 0
-314 300 315 0
-314 -300 -315 0
314 -300 315 0
314 300 -315 0
-315 292 294 0
-315 -292 -294 0
315 -292 294 0
315 292 -294 0
-316 317 322 0
-316 322 324 0
-316 317 324 0
316 -317 -324 0
316 -322 -324 0
316 -317 -322 0
-317 318 319 0
-317 319 320 0
-317 318 320 0
317 -318 -320 0
317 -319 -320 0
317 -318 -319 0
-318 139 145 0
-318 -139 -145 0
318 -139 145 0
318 139 -145 0
-319 168 176 0
-319 141 168 0
-319 141 176 0
319 -141 -168 0
319 -168 -176 0
319 -141 -176 0
-320 310 321 0
-320 -310 -321 0
320 -310 321 0
320 310 -321 0
-321 106 309 0
-321 -106 -309 0
321 -106 309 0
321 106 -309 0
-322 312 323 0
-322 -312 -323 0
322 -312 323 0
322 312 -323 0
-323 306 308 0
-323 -306 -308 0
323 -306 308 0
323 306 -308 0
-324 325 331 0
-324 331 333 0
-324 325 333 0
324 -325 -333 0
324 -331 -333 0
324 -325 -331 0
-325 326 327 0
-325 327 329 0
-325 326 329 0
325 -326 -329 0
325 -327 -329 0
325 -326 -327 0
-326 360 207 0
-326 357 169 0
-326 169 207 0
-326 360 169 0
-326 357 207 0
326 -169 -207 0
326 -357 -360 -207 0
326 -357 -360 -169 0
-327 175 328 0
-327 -175 -328 0
327 -175 328 0
327 175 -328 0
-328 -140 -177 0
-328 140 177 0
328 140 -177 0
328 -140 177 0
-329 141 330 0
-329 -141 -330 0
329 -141 330 0
329 141 -330 0
-330 -168 -176 0
-330 168 176 0
330 168 -176 0
330 -168 176 0
-331 320 332 0
-331 -320 -332 0
331 -320 332 0
331 320 -332 0
-332 318 319 0
-332 -318 -319 0
332 -318 319 0
332 318 -319 0
-333 334 337 0
-333 337 339 0
-333 334 339 0
333 -334 -339 0
333 -337 -339 0
333 -334 -337 0
-334 170 335 0
-334 170 200 0
-334 200 335 0
334 -200 -335 0
334 -170 -335 0
334 -170 -200 0
-335 206 336 0
-335 -206 -336 0
335 -206 336 0
335 206 -336 0
-336 -169 -207 0
-336 169 207 0
336 169 -207 0
336 -169 207 0
-337 329 338 0
-337 -329 -338 0
337 -329 338 0
337 329 -338 0
-338 326 327 0
-338 -326 -327 0
338 -326 327 0
338 326 -327 0
-339 340 342 0
-339 342 344 0
-339 340 344 0
339 -340 -344 0
339 -342 -344 0
339 -340 -342 0
-340 357 341 0
-340 352 226 0
-340 226 341 0
-340 357 226 0
-340 352 341 0
340 -226 -341 0
340 -352 -357 -341 0
340 -352 -357 -226 0
341 -224 -225 0
-341 224 0
-341 225 0
-342 335 343 0
-342 -335 -343 0
342 -335 343 0
342 335 -343 0
-343 -170 -200 0
-343 170 200 0
343 170 -200 0
343 -170 200 0
-344 202 345 0
-344 345 347 0
-344 202 347 0
344 -202 -347 0
344 -345 -347 0
344 -202 -345 0
-345 341 346 0
-345 -341 -346 0
345 -341 346 0
345 341 -346 0
-346 -201 -226 0
-346 201 226 0
346 201 -226 0
346 -201 226 0
-347 236 348 0
-347 223 236 0
-347 223 348 0
347 -223 -236 0
347 -236 -348 0
347 -223 -348 0
-348 -224 -225 0
-348 224 225 0
348 224 -225 0
348 -224 225 0
-365 0
2 0

